100 90 10
0 1 0
1 2 0
2 3 0
3 4 0
4 5 0
5 6 0
6 7 0
7 8 0
8 9 0
10 11 1
11 12 1
12 13 1
13 14 1
14 15 1
15 16 1
16 17 1
17 18 1
18 19 1
20 21 2
21 22 2
22 23 2
23 24 2
24 25 2
25 26 2
26 27 2
27 28 2
28 29 2
30 31 3
31 32 3
32 33 3
33 34 3
34 35 3
35 36 3
36 37 3
37 38 3
38 39 3
40 41 4
41 42 4
42 43 4
43 44 4
44 45 4
45 46 4
46 47 4
47 48 4
48 49 4
50 51 5
51 52 5
52 53 5
53 54 5
54 55 5
55 56 5
56 57 5
57 58 5
58 59 5
60 61 6
61 62 6
62 63 6
63 64 6
64 65 6
65 66 6
66 67 6
67 68 6
68 69 6
70 71 7
71 72 7
72 73 7
73 74 7
74 75 7
75 76 7
76 77 7
77 78 7
78 79 7
80 81 8
81 82 8
82 83 8
83 84 8
84 85 8
85 86 8
86 87 8
87 88 8
88 89 8
90 91 9
91 92 9
92 93 9
93 94 9
94 95 9
95 96 9
96 97 9
97 98 9
98 99 9
1 6 54
1 0 87
1 4 48
1 3 60
2 7 39 9 39
1 8 35
1 1 72
1 5 95
1 2 66
1 9 5
1 3 20
1 9 46
2 6 34 8 34
1 5 55
1 0 97
2 8 19 9 19
1 4 59
1 2 21
1 7 37
1 1 46
1 4 45
2 1 24 2 24
1 8 28
1 0 28
1 7 83
1 6 78
1 5 23
2 3 25 9 25
1 9 5
1 2 73
2 9 12 1 12
1 1 37
1 4 38
1 3 71
1 8 33
1 2 12
1 6 55
1 0 53
1 7 87
1 5 29
1 3 83
2 2 49 0 49
1 6 23
1 9 27
2 7 65 2 65
1 0 48
1 4 90
2 5 7 8 7
1 1 40
2 8 17 7 17
1 1 66
1 4 25
1 0 62
1 2 84
1 9 13
1 6 64
1 7 46
1 8 59
1 5 19
1 3 85
1 1 73
1 3 80
1 0 41
1 2 53
1 9 47
1 7 57
1 8 74
1 4 14
1 6 67
1 5 88
2 5 64 2 64
1 3 84
1 6 46
1 1 78
1 0 84
1 7 26
1 8 28
1 9 52
1 2 41
1 4 63
2 1 11 4 11
1 0 64
1 7 67
1 4 85
1 3 10
1 5 73
1 9 38
1 8 95
1 6 97
1 2 17
1 4 60
2 8 32 4 32
1 2 95
1 3 93
1 1 65
1 6 85
1 7 43
1 9 85
1 5 46
1 0 59